c nIsolatedPIs 4
c maxPI 131
p cnf 753 1867
c gate 132 -45 126 0
-45 -132 0
126 -132 0
45 -126 132 0
c gate 133 -47 -126 0
-47 -133 0
-126 -133 0
47 126 133 0
c gate 134 125 -133 0
125 -134 0
-133 -134 0
-125 133 134 0
c gate 135 -132 134 0
-132 -135 0
134 -135 0
132 -134 135 0
c gate 136 -46 126 0
-46 -136 0
126 -136 0
46 -126 136 0
c gate 137 -48 -126 0
-48 -137 0
-126 -137 0
48 126 137 0
c gate 138 -125 -137 0
-125 -138 0
-137 -138 0
125 137 138 0
c gate 139 -136 138 0
-136 -139 0
138 -139 0
136 -138 139 0
c gate 140 -135 -139 0
-135 -140 0
-139 -140 0
135 139 140 0
c gate 141 128 140 0
128 -141 0
140 -141 0
-128 -140 141 0
c gate 142 -54 126 0
-54 -142 0
126 -142 0
54 -126 142 0
c gate 143 -56 -126 0
-56 -143 0
-126 -143 0
56 126 143 0
c gate 144 -125 -143 0
-125 -144 0
-143 -144 0
125 143 144 0
c gate 145 -142 144 0
-142 -145 0
144 -145 0
142 -144 145 0
c gate 146 -53 126 0
-53 -146 0
126 -146 0
53 -126 146 0
c gate 147 -55 -126 0
-55 -147 0
-126 -147 0
55 126 147 0
c gate 148 125 -147 0
125 -148 0
-147 -148 0
-125 147 148 0
c gate 149 -146 148 0
-146 -149 0
148 -149 0
146 -148 149 0
c gate 150 -128 -149 0
-128 -150 0
-149 -150 0
128 149 150 0
c gate 151 -145 150 0
-145 -151 0
150 -151 0
145 -150 151 0
c gate 152 -127 -151 0
-127 -152 0
-151 -152 0
127 151 152 0
c gate 153 -141 152 0
-141 -153 0
152 -153 0
141 -152 153 0
c gate 154 -41 126 0
-41 -154 0
126 -154 0
41 -126 154 0
c gate 155 -43 -126 0
-43 -155 0
-126 -155 0
43 126 155 0
c gate 156 125 -155 0
125 -156 0
-155 -156 0
-125 155 156 0
c gate 157 -154 156 0
-154 -157 0
156 -157 0
154 -156 157 0
c gate 158 -42 126 0
-42 -158 0
126 -158 0
42 -126 158 0
c gate 159 -44 -126 0
-44 -159 0
-126 -159 0
44 126 159 0
c gate 160 -125 -159 0
-125 -160 0
-159 -160 0
125 159 160 0
c gate 161 -158 160 0
-158 -161 0
160 -161 0
158 -160 161 0
c gate 162 -157 -161 0
-157 -162 0
-161 -162 0
157 161 162 0
c gate 163 128 162 0
128 -163 0
162 -163 0
-128 -162 163 0
c gate 164 -50 126 0
-50 -164 0
126 -164 0
50 -126 164 0
c gate 165 -52 -126 0
-52 -165 0
-126 -165 0
52 126 165 0
c gate 166 -125 -165 0
-125 -166 0
-165 -166 0
125 165 166 0
c gate 167 -164 166 0
-164 -167 0
166 -167 0
164 -166 167 0
c gate 168 -49 126 0
-49 -168 0
126 -168 0
49 -126 168 0
c gate 169 -51 -126 0
-51 -169 0
-126 -169 0
51 126 169 0
c gate 170 125 -169 0
125 -170 0
-169 -170 0
-125 169 170 0
c gate 171 -168 170 0
-168 -171 0
170 -171 0
168 -170 171 0
c gate 172 -128 -171 0
-128 -172 0
-171 -172 0
128 171 172 0
c gate 173 -167 172 0
-167 -173 0
172 -173 0
167 -172 173 0
c gate 174 127 -173 0
127 -174 0
-173 -174 0
-127 173 174 0
c gate 175 -163 174 0
-163 -175 0
174 -175 0
163 -174 175 0
c gate 176 -153 -175 0
-153 -176 0
-175 -176 0
153 175 176 0
c gate 177 -130 -176 0
-130 -177 0
-176 -177 0
130 176 177 0
c gate 178 12 -126 0
12 -178 0
-126 -178 0
-12 126 178 0
c gate 179 10 126 0
10 -179 0
126 -179 0
-10 -126 179 0
c gate 180 -125 -179 0
-125 -180 0
-179 -180 0
125 179 180 0
c gate 181 -178 180 0
-178 -181 0
180 -181 0
178 -180 181 0
c gate 182 11 -126 0
11 -182 0
-126 -182 0
-11 126 182 0
c gate 183 9 126 0
9 -183 0
126 -183 0
-9 -126 183 0
c gate 184 125 -183 0
125 -184 0
-183 -184 0
-125 183 184 0
c gate 185 -182 184 0
-182 -185 0
184 -185 0
182 -184 185 0
c gate 186 -181 -185 0
-181 -186 0
-185 -186 0
181 185 186 0
c gate 187 128 -186 0
128 -187 0
-186 -187 0
-128 186 187 0
c gate 188 19 -126 0
19 -188 0
-126 -188 0
-19 126 188 0
c gate 189 17 126 0
17 -189 0
126 -189 0
-17 -126 189 0
c gate 190 125 -189 0
125 -190 0
-189 -190 0
-125 189 190 0
c gate 191 -188 190 0
-188 -191 0
190 -191 0
188 -190 191 0
c gate 192 20 -126 0
20 -192 0
-126 -192 0
-20 126 192 0
c gate 193 18 126 0
18 -193 0
126 -193 0
-18 -126 193 0
c gate 194 -125 -193 0
-125 -194 0
-193 -194 0
125 193 194 0
c gate 195 -192 194 0
-192 -195 0
194 -195 0
192 -194 195 0
c gate 196 -191 -195 0
-191 -196 0
-195 -196 0
191 195 196 0
c gate 197 -128 -196 0
-128 -197 0
-196 -197 0
128 196 197 0
c gate 198 127 -197 0
127 -198 0
-197 -198 0
-127 197 198 0
c gate 199 -187 198 0
-187 -199 0
198 -199 0
187 -198 199 0
c gate 200 16 -126 0
16 -200 0
-126 -200 0
-16 126 200 0
c gate 201 14 126 0
14 -201 0
126 -201 0
-14 -126 201 0
c gate 202 -125 -201 0
-125 -202 0
-201 -202 0
125 201 202 0
c gate 203 -200 202 0
-200 -203 0
202 -203 0
200 -202 203 0
c gate 204 15 -126 0
15 -204 0
-126 -204 0
-15 126 204 0
c gate 205 13 126 0
13 -205 0
126 -205 0
-13 -126 205 0
c gate 206 125 -205 0
125 -206 0
-205 -206 0
-125 205 206 0
c gate 207 -204 206 0
-204 -207 0
206 -207 0
204 -206 207 0
c gate 208 -203 -207 0
-203 -208 0
-207 -208 0
203 207 208 0
c gate 209 128 -208 0
128 -209 0
-208 -209 0
-128 208 209 0
c gate 210 23 -126 0
23 -210 0
-126 -210 0
-23 126 210 0
c gate 211 21 126 0
21 -211 0
126 -211 0
-21 -126 211 0
c gate 212 125 -211 0
125 -212 0
-211 -212 0
-125 211 212 0
c gate 213 -210 212 0
-210 -213 0
212 -213 0
210 -212 213 0
c gate 214 24 -126 0
24 -214 0
-126 -214 0
-24 126 214 0
c gate 215 22 126 0
22 -215 0
126 -215 0
-22 -126 215 0
c gate 216 -125 -215 0
-125 -216 0
-215 -216 0
125 215 216 0
c gate 217 -214 216 0
-214 -217 0
216 -217 0
214 -216 217 0
c gate 218 -213 -217 0
-213 -218 0
-217 -218 0
213 217 218 0
c gate 219 -128 -218 0
-128 -219 0
-218 -219 0
128 218 219 0
c gate 220 -127 -219 0
-127 -220 0
-219 -220 0
127 219 220 0
c gate 221 -209 220 0
-209 -221 0
220 -221 0
209 -220 221 0
c gate 222 -199 -221 0
-199 -222 0
-221 -222 0
199 221 222 0
c gate 223 130 -222 0
130 -223 0
-222 -223 0
-130 222 223 0
c gate 224 -177 -223 0
-177 -224 0
-223 -224 0
177 223 224 0
c gate 225 129 -224 0
129 -225 0
-224 -225 0
-129 224 225 0
c gate 226 -131 225 0
-131 -226 0
225 -226 0
131 -225 226 0
c gate 227 -97 -126 0
-97 -227 0
-126 -227 0
97 126 227 0
c gate 228 -95 126 0
-95 -228 0
126 -228 0
95 -126 228 0
c gate 229 -227 -228 0
-227 -229 0
-228 -229 0
227 228 229 0
c gate 230 125 229 0
125 -230 0
229 -230 0
-125 -229 230 0
c gate 231 -96 126 0
-96 -231 0
126 -231 0
96 -126 231 0
c gate 232 -98 -126 0
-98 -232 0
-126 -232 0
98 126 232 0
c gate 233 -231 -232 0
-231 -233 0
-232 -233 0
231 232 233 0
c gate 234 -125 233 0
-125 -234 0
233 -234 0
125 -233 234 0
c gate 235 -128 -234 0
-128 -235 0
-234 -235 0
128 234 235 0
c gate 236 -230 235 0
-230 -236 0
235 -236 0
230 -235 236 0
c gate 237 -89 -126 0
-89 -237 0
-126 -237 0
89 126 237 0
c gate 238 -87 126 0
-87 -238 0
126 -238 0
87 -126 238 0
c gate 239 -237 -238 0
-237 -239 0
-238 -239 0
237 238 239 0
c gate 240 125 239 0
125 -240 0
239 -240 0
-125 -239 240 0
c gate 241 -90 -126 0
-90 -241 0
-126 -241 0
90 126 241 0
c gate 242 -88 126 0
-88 -242 0
126 -242 0
88 -126 242 0
c gate 243 -125 -242 0
-125 -243 0
-242 -243 0
125 242 243 0
c gate 244 -241 243 0
-241 -244 0
243 -244 0
241 -243 244 0
c gate 245 128 -244 0
128 -245 0
-244 -245 0
-128 244 245 0
c gate 246 -240 245 0
-240 -246 0
245 -246 0
240 -245 246 0
c gate 247 -236 -246 0
-236 -247 0
-246 -247 0
236 246 247 0
c gate 248 127 -247 0
127 -248 0
-247 -248 0
-127 247 248 0
c gate 249 -93 -126 0
-93 -249 0
-126 -249 0
93 126 249 0
c gate 250 -91 126 0
-91 -250 0
126 -250 0
91 -126 250 0
c gate 251 -249 -250 0
-249 -251 0
-250 -251 0
249 250 251 0
c gate 252 125 251 0
125 -252 0
251 -252 0
-125 -251 252 0
c gate 253 -94 -126 0
-94 -253 0
-126 -253 0
94 126 253 0
c gate 254 -92 126 0
-92 -254 0
126 -254 0
92 -126 254 0
c gate 255 -125 -254 0
-125 -255 0
-254 -255 0
125 254 255 0
c gate 256 -253 255 0
-253 -256 0
255 -256 0
253 -255 256 0
c gate 257 128 -256 0
128 -257 0
-256 -257 0
-128 256 257 0
c gate 258 -252 257 0
-252 -258 0
257 -258 0
252 -257 258 0
c gate 259 -99 126 0
-99 -259 0
126 -259 0
99 -126 259 0
c gate 260 -101 -126 0
-101 -260 0
-126 -260 0
101 126 260 0
c gate 261 125 -260 0
125 -261 0
-260 -261 0
-125 260 261 0
c gate 262 -259 261 0
-259 -262 0
261 -262 0
259 -261 262 0
c gate 263 -100 126 0
-100 -263 0
126 -263 0
100 -126 263 0
c gate 264 -102 -126 0
-102 -264 0
-126 -264 0
102 126 264 0
c gate 265 -263 -264 0
-263 -265 0
-264 -265 0
263 264 265 0
c gate 266 -125 265 0
-125 -266 0
265 -266 0
125 -265 266 0
c gate 267 -128 -266 0
-128 -267 0
-266 -267 0
128 266 267 0
c gate 268 -262 267 0
-262 -268 0
267 -268 0
262 -267 268 0
c gate 269 -258 -268 0
-258 -269 0
-268 -269 0
258 268 269 0
c gate 270 -127 -269 0
-127 -270 0
-269 -270 0
127 269 270 0
c gate 271 130 -270 0
130 -271 0
-270 -271 0
-130 270 271 0
c gate 272 -248 271 0
-248 -272 0
271 -272 0
248 -271 272 0
c gate 273 -119 -126 0
-119 -273 0
-126 -273 0
119 126 273 0
c gate 274 -117 126 0
-117 -274 0
126 -274 0
117 -126 274 0
c gate 275 -273 -274 0
-273 -275 0
-274 -275 0
273 274 275 0
c gate 276 125 275 0
125 -276 0
275 -276 0
-125 -275 276 0
c gate 277 -120 -126 0
-120 -277 0
-126 -277 0
120 126 277 0
c gate 278 -118 126 0
-118 -278 0
126 -278 0
118 -126 278 0
c gate 279 -125 -278 0
-125 -279 0
-278 -279 0
125 278 279 0
c gate 280 -277 279 0
-277 -280 0
279 -280 0
277 -279 280 0
c gate 281 128 -280 0
128 -281 0
-280 -281 0
-128 280 281 0
c gate 282 -276 281 0
-276 -282 0
281 -282 0
276 -281 282 0
c gate 283 -3 -126 0
-3 -283 0
-126 -283 0
3 126 283 0
c gate 284 -1 126 0
-1 -284 0
126 -284 0
1 -126 284 0
c gate 285 -283 -284 0
-283 -285 0
-284 -285 0
283 284 285 0
c gate 286 125 285 0
125 -286 0
285 -286 0
-125 -285 286 0
c gate 287 -4 -126 0
-4 -287 0
-126 -287 0
4 126 287 0
c gate 288 -2 126 0
-2 -288 0
126 -288 0
2 -126 288 0
c gate 289 -125 -288 0
-125 -289 0
-288 -289 0
125 288 289 0
c gate 290 -287 289 0
-287 -290 0
289 -290 0
287 -289 290 0
c gate 291 -128 -290 0
-128 -291 0
-290 -291 0
128 290 291 0
c gate 292 -286 291 0
-286 -292 0
291 -292 0
286 -291 292 0
c gate 293 127 -292 0
127 -293 0
-292 -293 0
-127 292 293 0
c gate 294 -282 293 0
-282 -294 0
293 -294 0
282 -293 294 0
c gate 295 -123 -126 0
-123 -295 0
-126 -295 0
123 126 295 0
c gate 296 -121 126 0
-121 -296 0
126 -296 0
121 -126 296 0
c gate 297 -295 -296 0
-295 -297 0
-296 -297 0
295 296 297 0
c gate 298 125 297 0
125 -298 0
297 -298 0
-125 -297 298 0
c gate 299 -124 -126 0
-124 -299 0
-126 -299 0
124 126 299 0
c gate 300 -122 126 0
-122 -300 0
126 -300 0
122 -126 300 0
c gate 301 -125 -300 0
-125 -301 0
-300 -301 0
125 300 301 0
c gate 302 -299 301 0
-299 -302 0
301 -302 0
299 -301 302 0
c gate 303 128 -302 0
128 -303 0
-302 -303 0
-128 302 303 0
c gate 304 -298 303 0
-298 -304 0
303 -304 0
298 -303 304 0
c gate 305 -6 126 0
-6 -305 0
126 -305 0
6 -126 305 0
c gate 306 -8 -126 0
-8 -306 0
-126 -306 0
8 126 306 0
c gate 307 -125 -306 0
-125 -307 0
-306 -307 0
125 306 307 0
c gate 308 -305 307 0
-305 -308 0
307 -308 0
305 -307 308 0
c gate 309 -5 126 0
-5 -309 0
126 -309 0
5 -126 309 0
c gate 310 -7 -126 0
-7 -310 0
-126 -310 0
7 126 310 0
c gate 311 125 -310 0
125 -311 0
-310 -311 0
-125 310 311 0
c gate 312 -309 311 0
-309 -312 0
311 -312 0
309 -311 312 0
c gate 313 -128 -312 0
-128 -313 0
-312 -313 0
128 312 313 0
c gate 314 -308 313 0
-308 -314 0
313 -314 0
308 -313 314 0
c gate 315 -127 -314 0
-127 -315 0
-314 -315 0
127 314 315 0
c gate 316 -304 315 0
-304 -316 0
315 -316 0
304 -315 316 0
c gate 317 -294 -316 0
-294 -317 0
-316 -317 0
294 316 317 0
c gate 318 -130 -317 0
-130 -318 0
-317 -318 0
130 317 318 0
c gate 319 129 -318 0
129 -319 0
-318 -319 0
-129 318 319 0
c gate 320 -272 319 0
-272 -320 0
319 -320 0
272 -319 320 0
c gate 321 131 320 0
131 -321 0
320 -321 0
-131 -320 321 0
c gate 322 -38 126 0
-38 -322 0
126 -322 0
38 -126 322 0
c gate 323 -40 -126 0
-40 -323 0
-126 -323 0
40 126 323 0
c gate 324 -125 -323 0
-125 -324 0
-323 -324 0
125 323 324 0
c gate 325 -322 324 0
-322 -325 0
324 -325 0
322 -324 325 0
c gate 326 -37 126 0
-37 -326 0
126 -326 0
37 -126 326 0
c gate 327 -39 -126 0
-39 -327 0
-126 -327 0
39 126 327 0
c gate 328 125 -327 0
125 -328 0
-327 -328 0
-125 327 328 0
c gate 329 -326 328 0
-326 -329 0
328 -329 0
326 -328 329 0
c gate 330 128 -329 0
128 -330 0
-329 -330 0
-128 329 330 0
c gate 331 -325 330 0
-325 -331 0
330 -331 0
325 -330 331 0
c gate 332 -128 140 0
-128 -332 0
140 -332 0
128 -140 332 0
c gate 333 -127 -332 0
-127 -333 0
-332 -333 0
127 332 333 0
c gate 334 -331 333 0
-331 -334 0
333 -334 0
331 -333 334 0
c gate 335 -34 126 0
-34 -335 0
126 -335 0
34 -126 335 0
c gate 336 -36 -126 0
-36 -336 0
-126 -336 0
36 126 336 0
c gate 337 -125 -336 0
-125 -337 0
-336 -337 0
125 336 337 0
c gate 338 -335 337 0
-335 -338 0
337 -338 0
335 -337 338 0
c gate 339 -33 126 0
-33 -339 0
126 -339 0
33 -126 339 0
c gate 340 -35 -126 0
-35 -340 0
-126 -340 0
35 126 340 0
c gate 341 125 -340 0
125 -341 0
-340 -341 0
-125 340 341 0
c gate 342 -339 341 0
-339 -342 0
341 -342 0
339 -341 342 0
c gate 343 128 -342 0
128 -343 0
-342 -343 0
-128 342 343 0
c gate 344 -338 343 0
-338 -344 0
343 -344 0
338 -343 344 0
c gate 345 -128 162 0
-128 -345 0
162 -345 0
128 -162 345 0
c gate 346 127 -345 0
127 -346 0
-345 -346 0
-127 345 346 0
c gate 347 -344 346 0
-344 -347 0
346 -347 0
344 -346 347 0
c gate 348 -334 -347 0
-334 -348 0
-347 -348 0
334 347 348 0
c gate 349 130 -348 0
130 -349 0
-348 -349 0
-130 348 349 0
c gate 350 -67 -126 0
-67 -350 0
-126 -350 0
67 126 350 0
c gate 351 -65 126 0
-65 -351 0
126 -351 0
65 -126 351 0
c gate 352 -350 -351 0
-350 -352 0
-351 -352 0
350 351 352 0
c gate 353 125 352 0
125 -353 0
352 -353 0
-125 -352 353 0
c gate 354 -66 126 0
-66 -354 0
126 -354 0
66 -126 354 0
c gate 355 -68 -126 0
-68 -355 0
-126 -355 0
68 126 355 0
c gate 356 -125 -355 0
-125 -356 0
-355 -356 0
125 355 356 0
c gate 357 -354 356 0
-354 -357 0
356 -357 0
354 -356 357 0
c gate 358 128 -357 0
128 -358 0
-357 -358 0
-128 357 358 0
c gate 359 -353 358 0
-353 -359 0
358 -359 0
353 -358 359 0
c gate 360 -75 -126 0
-75 -360 0
-126 -360 0
75 126 360 0
c gate 361 -73 126 0
-73 -361 0
126 -361 0
73 -126 361 0
c gate 362 -360 -361 0
-360 -362 0
-361 -362 0
360 361 362 0
c gate 363 125 362 0
125 -363 0
362 -363 0
-125 -362 363 0
c gate 364 -74 126 0
-74 -364 0
126 -364 0
74 -126 364 0
c gate 365 -76 -126 0
-76 -365 0
-126 -365 0
76 126 365 0
c gate 366 -125 -365 0
-125 -366 0
-365 -366 0
125 365 366 0
c gate 367 -364 366 0
-364 -367 0
366 -367 0
364 -366 367 0
c gate 368 -128 -367 0
-128 -368 0
-367 -368 0
128 367 368 0
c gate 369 -363 368 0
-363 -369 0
368 -369 0
363 -368 369 0
c gate 370 -359 -369 0
-359 -370 0
-369 -370 0
359 369 370 0
c gate 371 127 -370 0
127 -371 0
-370 -371 0
-127 370 371 0
c gate 372 -79 -126 0
-79 -372 0
-126 -372 0
79 126 372 0
c gate 373 -77 126 0
-77 -373 0
126 -373 0
77 -126 373 0
c gate 374 -372 -373 0
-372 -374 0
-373 -374 0
372 373 374 0
c gate 375 125 374 0
125 -375 0
374 -375 0
-125 -374 375 0
c gate 376 -78 126 0
-78 -376 0
126 -376 0
78 -126 376 0
c gate 377 -80 -126 0
-80 -377 0
-126 -377 0
80 126 377 0
c gate 378 -125 -377 0
-125 -378 0
-377 -378 0
125 377 378 0
c gate 379 -376 378 0
-376 -379 0
378 -379 0
376 -378 379 0
c gate 380 -128 -379 0
-128 -380 0
-379 -380 0
128 379 380 0
c gate 381 -375 380 0
-375 -381 0
380 -381 0
375 -380 381 0
c gate 382 -71 -126 0
-71 -382 0
-126 -382 0
71 126 382 0
c gate 383 -69 126 0
-69 -383 0
126 -383 0
69 -126 383 0
c gate 384 -382 -383 0
-382 -384 0
-383 -384 0
382 383 384 0
c gate 385 125 384 0
125 -385 0
384 -385 0
-125 -384 385 0
c gate 386 -70 126 0
-70 -386 0
126 -386 0
70 -126 386 0
c gate 387 -72 -126 0
-72 -387 0
-126 -387 0
72 126 387 0
c gate 388 -125 -387 0
-125 -388 0
-387 -388 0
125 387 388 0
c gate 389 -386 388 0
-386 -389 0
388 -389 0
386 -388 389 0
c gate 390 128 -389 0
128 -390 0
-389 -390 0
-128 389 390 0
c gate 391 -385 390 0
-385 -391 0
390 -391 0
385 -390 391 0
c gate 392 -381 -391 0
-381 -392 0
-391 -392 0
381 391 392 0
c gate 393 -127 -392 0
-127 -393 0
-392 -393 0
127 392 393 0
c gate 394 -130 -393 0
-130 -394 0
-393 -394 0
130 393 394 0
c gate 395 -371 394 0
-371 -395 0
394 -395 0
371 -394 395 0
c gate 396 -349 -395 0
-349 -396 0
-395 -396 0
349 395 396 0
c gate 397 129 -396 0
129 -397 0
-396 -397 0
-129 396 397 0
c gate 398 131 397 0
131 -398 0
397 -398 0
-131 -397 398 0
c gate 399 131 225 0
131 -399 0
225 -399 0
-131 -225 399 0
c gate 400 -67 126 0
-67 -400 0
126 -400 0
67 -126 400 0
c gate 401 -69 -126 0
-69 -401 0
-126 -401 0
69 126 401 0
c gate 402 125 -401 0
125 -402 0
-401 -402 0
-125 401 402 0
c gate 403 -400 402 0
-400 -403 0
402 -403 0
400 -402 403 0
c gate 404 -68 126 0
-68 -404 0
126 -404 0
68 -126 404 0
c gate 405 -70 -126 0
-70 -405 0
-126 -405 0
70 126 405 0
c gate 406 -404 -405 0
-404 -406 0
-405 -406 0
404 405 406 0
c gate 407 -125 406 0
-125 -407 0
406 -407 0
125 -406 407 0
c gate 408 128 -407 0
128 -408 0
-407 -408 0
-128 407 408 0
c gate 409 -403 408 0
-403 -409 0
408 -409 0
403 -408 409 0
c gate 410 -75 126 0
-75 -410 0
126 -410 0
75 -126 410 0
c gate 411 -77 -126 0
-77 -411 0
-126 -411 0
77 126 411 0
c gate 412 125 -411 0
125 -412 0
-411 -412 0
-125 411 412 0
c gate 413 -410 412 0
-410 -413 0
412 -413 0
410 -412 413 0
c gate 414 -76 126 0
-76 -414 0
126 -414 0
76 -126 414 0
c gate 415 -78 -126 0
-78 -415 0
-126 -415 0
78 126 415 0
c gate 416 -414 -415 0
-414 -416 0
-415 -416 0
414 415 416 0
c gate 417 -125 416 0
-125 -417 0
416 -417 0
125 -416 417 0
c gate 418 -128 -417 0
-128 -418 0
-417 -418 0
128 417 418 0
c gate 419 -413 418 0
-413 -419 0
418 -419 0
413 -418 419 0
c gate 420 127 -419 0
127 -420 0
-419 -420 0
-127 419 420 0
c gate 421 -409 420 0
-409 -421 0
420 -421 0
409 -420 421 0
c gate 422 -71 126 0
-71 -422 0
126 -422 0
71 -126 422 0
c gate 423 -73 -126 0
-73 -423 0
-126 -423 0
73 126 423 0
c gate 424 125 -423 0
125 -424 0
-423 -424 0
-125 423 424 0
c gate 425 -422 424 0
-422 -425 0
424 -425 0
422 -424 425 0
c gate 426 -72 126 0
-72 -426 0
126 -426 0
72 -126 426 0
c gate 427 -74 -126 0
-74 -427 0
-126 -427 0
74 126 427 0
c gate 428 -426 -427 0
-426 -428 0
-427 -428 0
426 427 428 0
c gate 429 -125 428 0
-125 -429 0
428 -429 0
125 -428 429 0
c gate 430 128 -429 0
128 -430 0
-429 -430 0
-128 429 430 0
c gate 431 -425 430 0
-425 -431 0
430 -431 0
425 -430 431 0
c gate 432 -80 126 0
-80 -432 0
126 -432 0
80 -126 432 0
c gate 433 -82 -126 0
-82 -433 0
-126 -433 0
82 126 433 0
c gate 434 -125 -433 0
-125 -434 0
-433 -434 0
125 433 434 0
c gate 435 -432 434 0
-432 -435 0
434 -435 0
432 -434 435 0
c gate 436 -79 126 0
-79 -436 0
126 -436 0
79 -126 436 0
c gate 437 -81 -126 0
-81 -437 0
-126 -437 0
81 126 437 0
c gate 438 125 -437 0
125 -438 0
-437 -438 0
-125 437 438 0
c gate 439 -436 438 0
-436 -439 0
438 -439 0
436 -438 439 0
c gate 440 -128 -439 0
-128 -440 0
-439 -440 0
128 439 440 0
c gate 441 -435 440 0
-435 -441 0
440 -441 0
435 -440 441 0
c gate 442 -127 -441 0
-127 -442 0
-441 -442 0
127 441 442 0
c gate 443 -431 442 0
-431 -443 0
442 -443 0
431 -442 443 0
c gate 444 -130 -443 0
-130 -444 0
-443 -444 0
130 443 444 0
c gate 445 -421 444 0
-421 -445 0
444 -445 0
421 -444 445 0
c gate 446 49 -126 0
49 -446 0
-126 -446 0
-49 126 446 0
c gate 447 47 126 0
47 -447 0
126 -447 0
-47 -126 447 0
c gate 448 125 -447 0
125 -448 0
-447 -448 0
-125 447 448 0
c gate 449 -446 448 0
-446 -449 0
448 -449 0
446 -448 449 0
c gate 450 48 126 0
48 -450 0
126 -450 0
-48 -126 450 0
c gate 451 50 -126 0
50 -451 0
-126 -451 0
-50 126 451 0
c gate 452 -125 -451 0
-125 -452 0
-451 -452 0
125 451 452 0
c gate 453 -450 452 0
-450 -453 0
452 -453 0
450 -452 453 0
c gate 454 -128 -453 0
-128 -454 0
-453 -454 0
128 453 454 0
c gate 455 -449 454 0
-449 -455 0
454 -455 0
449 -454 455 0
c gate 456 42 -126 0
42 -456 0
-126 -456 0
-42 126 456 0
c gate 457 40 126 0
40 -457 0
126 -457 0
-40 -126 457 0
c gate 458 -125 -457 0
-125 -458 0
-457 -458 0
125 457 458 0
c gate 459 -456 458 0
-456 -459 0
458 -459 0
456 -458 459 0
c gate 460 39 126 0
39 -460 0
126 -460 0
-39 -126 460 0
c gate 461 41 -126 0
41 -461 0
-126 -461 0
-41 126 461 0
c gate 462 125 -461 0
125 -462 0
-461 -462 0
-125 461 462 0
c gate 463 -460 462 0
-460 -463 0
462 -463 0
460 -462 463 0
c gate 464 128 -463 0
128 -464 0
-463 -464 0
-128 463 464 0
c gate 465 -459 464 0
-459 -465 0
464 -465 0
459 -464 465 0
c gate 466 -127 -465 0
-127 -466 0
-465 -466 0
127 465 466 0
c gate 467 -455 466 0
-455 -467 0
466 -467 0
455 -466 467 0
c gate 468 46 -126 0
46 -468 0
-126 -468 0
-46 126 468 0
c gate 469 44 126 0
44 -469 0
126 -469 0
-44 -126 469 0
c gate 470 -125 -469 0
-125 -470 0
-469 -470 0
125 469 470 0
c gate 471 -468 470 0
-468 -471 0
470 -471 0
468 -470 471 0
c gate 472 45 -126 0
45 -472 0
-126 -472 0
-45 126 472 0
c gate 473 43 126 0
43 -473 0
126 -473 0
-43 -126 473 0
c gate 474 125 -473 0
125 -474 0
-473 -474 0
-125 473 474 0
c gate 475 -472 474 0
-472 -475 0
474 -475 0
472 -474 475 0
c gate 476 -128 -475 0
-128 -476 0
-475 -476 0
128 475 476 0
c gate 477 -471 476 0
-471 -477 0
476 -477 0
471 -476 477 0
c gate 478 35 126 0
35 -478 0
126 -478 0
-35 -126 478 0
c gate 479 37 -126 0
37 -479 0
-126 -479 0
-37 126 479 0
c gate 480 125 -479 0
125 -480 0
-479 -480 0
-125 479 480 0
c gate 481 -478 480 0
-478 -481 0
480 -481 0
478 -480 481 0
c gate 482 36 126 0
36 -482 0
126 -482 0
-36 -126 482 0
c gate 483 38 -126 0
38 -483 0
-126 -483 0
-38 126 483 0
c gate 484 -125 -483 0
-125 -484 0
-483 -484 0
125 483 484 0
c gate 485 -482 484 0
-482 -485 0
484 -485 0
482 -484 485 0
c gate 486 128 -485 0
128 -486 0
-485 -486 0
-128 485 486 0
c gate 487 -481 486 0
-481 -487 0
486 -487 0
481 -486 487 0
c gate 488 127 -487 0
127 -488 0
-487 -488 0
-127 487 488 0
c gate 489 -477 488 0
-477 -489 0
488 -489 0
477 -488 489 0
c gate 490 -467 -489 0
-467 -490 0
-489 -490 0
467 489 490 0
c gate 491 130 -490 0
130 -491 0
-490 -491 0
-130 490 491 0
c gate 492 -129 -491 0
-129 -492 0
-491 -492 0
129 491 492 0
c gate 493 -445 492 0
-445 -493 0
492 -493 0
445 -492 493 0
c gate 494 131 -493 0
131 -494 0
-493 -494 0
-131 493 494 0
c gate 495 33 -126 0
33 -495 0
-126 -495 0
-33 126 495 0
c gate 496 31 126 0
31 -496 0
126 -496 0
-31 -126 496 0
c gate 497 125 -496 0
125 -497 0
-496 -497 0
-125 496 497 0
c gate 498 -495 497 0
-495 -498 0
497 -498 0
495 -497 498 0
c gate 499 32 126 0
32 -499 0
126 -499 0
-32 -126 499 0
c gate 500 34 -126 0
34 -500 0
-126 -500 0
-34 126 500 0
c gate 501 -125 -500 0
-125 -501 0
-500 -501 0
125 500 501 0
c gate 502 -499 501 0
-499 -502 0
501 -502 0
499 -501 502 0
c gate 503 -128 -502 0
-128 -503 0
-502 -503 0
128 502 503 0
c gate 504 -498 503 0
-498 -504 0
503 -504 0
498 -503 504 0
c gate 505 26 -126 0
26 -505 0
-126 -505 0
-26 126 505 0
c gate 506 24 126 0
24 -506 0
126 -506 0
-24 -126 506 0
c gate 507 -125 -506 0
-125 -507 0
-506 -507 0
125 506 507 0
c gate 508 -505 507 0
-505 -508 0
507 -508 0
505 -507 508 0
c gate 509 23 126 0
23 -509 0
126 -509 0
-23 -126 509 0
c gate 510 25 -126 0
25 -510 0
-126 -510 0
-25 126 510 0
c gate 511 125 -510 0
125 -511 0
-510 -511 0
-125 510 511 0
c gate 512 -509 511 0
-509 -512 0
511 -512 0
509 -511 512 0
c gate 513 128 -512 0
128 -513 0
-512 -513 0
-128 512 513 0
c gate 514 -508 513 0
-508 -514 0
513 -514 0
508 -513 514 0
c gate 515 -127 -514 0
-127 -515 0
-514 -515 0
127 514 515 0
c gate 516 -504 515 0
-504 -516 0
515 -516 0
504 -515 516 0
c gate 517 29 -126 0
29 -517 0
-126 -517 0
-29 126 517 0
c gate 518 27 126 0
27 -518 0
126 -518 0
-27 -126 518 0
c gate 519 125 -518 0
125 -519 0
-518 -519 0
-125 518 519 0
c gate 520 -517 519 0
-517 -520 0
519 -520 0
517 -519 520 0
c gate 521 28 126 0
28 -521 0
126 -521 0
-28 -126 521 0
c gate 522 30 -126 0
30 -522 0
-126 -522 0
-30 126 522 0
c gate 523 -125 -522 0
-125 -523 0
-522 -523 0
125 522 523 0
c gate 524 -521 523 0
-521 -524 0
523 -524 0
521 -523 524 0
c gate 525 -128 -524 0
-128 -525 0
-524 -525 0
128 524 525 0
c gate 526 -520 525 0
-520 -526 0
525 -526 0
520 -525 526 0
c gate 527 22 -126 0
22 -527 0
-126 -527 0
-22 126 527 0
c gate 528 20 126 0
20 -528 0
126 -528 0
-20 -126 528 0
c gate 529 -125 -528 0
-125 -529 0
-528 -529 0
125 528 529 0
c gate 530 -527 529 0
-527 -530 0
529 -530 0
527 -529 530 0
c gate 531 19 126 0
19 -531 0
126 -531 0
-19 -126 531 0
c gate 532 21 -126 0
21 -532 0
-126 -532 0
-21 126 532 0
c gate 533 125 -532 0
125 -533 0
-532 -533 0
-125 532 533 0
c gate 534 -531 533 0
-531 -534 0
533 -534 0
531 -533 534 0
c gate 535 128 -534 0
128 -535 0
-534 -535 0
-128 534 535 0
c gate 536 -530 535 0
-530 -536 0
535 -536 0
530 -535 536 0
c gate 537 127 -536 0
127 -537 0
-536 -537 0
-127 536 537 0
c gate 538 -526 537 0
-526 -538 0
537 -538 0
526 -537 538 0
c gate 539 -516 -538 0
-516 -539 0
-538 -539 0
516 538 539 0
c gate 540 130 -539 0
130 -540 0
-539 -540 0
-130 539 540 0
c gate 541 61 -126 0
61 -541 0
-126 -541 0
-61 126 541 0
c gate 542 59 126 0
59 -542 0
126 -542 0
-59 -126 542 0
c gate 543 125 -542 0
125 -543 0
-542 -543 0
-125 542 543 0
c gate 544 -541 543 0
-541 -544 0
543 -544 0
541 -543 544 0
c gate 545 60 126 0
60 -545 0
126 -545 0
-60 -126 545 0
c gate 546 62 -126 0
62 -546 0
-126 -546 0
-62 126 546 0
c gate 547 -125 -546 0
-125 -547 0
-546 -547 0
125 546 547 0
c gate 548 -545 547 0
-545 -548 0
547 -548 0
545 -547 548 0
c gate 549 -128 -548 0
-128 -549 0
-548 -549 0
128 548 549 0
c gate 550 -544 549 0
-544 -550 0
549 -550 0
544 -549 550 0
c gate 551 54 -126 0
54 -551 0
-126 -551 0
-54 126 551 0
c gate 552 52 126 0
52 -552 0
126 -552 0
-52 -126 552 0
c gate 553 -125 -552 0
-125 -553 0
-552 -553 0
125 552 553 0
c gate 554 -551 553 0
-551 -554 0
553 -554 0
551 -553 554 0
c gate 555 51 126 0
51 -555 0
126 -555 0
-51 -126 555 0
c gate 556 53 -126 0
53 -556 0
-126 -556 0
-53 126 556 0
c gate 557 125 -556 0
125 -557 0
-556 -557 0
-125 556 557 0
c gate 558 -555 557 0
-555 -558 0
557 -558 0
555 -557 558 0
c gate 559 128 -558 0
128 -559 0
-558 -559 0
-128 558 559 0
c gate 560 -554 559 0
-554 -560 0
559 -560 0
554 -559 560 0
c gate 561 127 -560 0
127 -561 0
-560 -561 0
-127 560 561 0
c gate 562 -550 561 0
-550 -562 0
561 -562 0
550 -561 562 0
c gate 563 -63 126 0
-63 -563 0
126 -563 0
63 -126 563 0
c gate 564 -65 -126 0
-65 -564 0
-126 -564 0
65 126 564 0
c gate 565 -563 -564 0
-563 -565 0
-564 -565 0
563 564 565 0
c gate 566 125 -565 0
125 -566 0
-565 -566 0
-125 565 566 0
c gate 567 -64 126 0
-64 -567 0
126 -567 0
64 -126 567 0
c gate 568 -66 -126 0
-66 -568 0
-126 -568 0
66 126 568 0
c gate 569 -567 -568 0
-567 -569 0
-568 -569 0
567 568 569 0
c gate 570 -125 -569 0
-125 -570 0
-569 -570 0
125 569 570 0
c gate 571 -128 -570 0
-128 -571 0
-570 -571 0
128 570 571 0
c gate 572 -566 571 0
-566 -572 0
571 -572 0
566 -571 572 0
c gate 573 -56 126 0
-56 -573 0
126 -573 0
56 -126 573 0
c gate 574 -58 -126 0
-58 -574 0
-126 -574 0
58 126 574 0
c gate 575 -125 -574 0
-125 -575 0
-574 -575 0
125 574 575 0
c gate 576 -573 575 0
-573 -576 0
575 -576 0
573 -575 576 0
c gate 577 -57 -126 0
-57 -577 0
-126 -577 0
57 126 577 0
c gate 578 -55 126 0
-55 -578 0
126 -578 0
55 -126 578 0
c gate 579 125 -578 0
125 -579 0
-578 -579 0
-125 578 579 0
c gate 580 -577 579 0
-577 -580 0
579 -580 0
577 -579 580 0
c gate 581 -576 -580 0
-576 -581 0
-580 -581 0
576 580 581 0
c gate 582 128 -581 0
128 -582 0
-581 -582 0
-128 581 582 0
c gate 583 -127 -582 0
-127 -583 0
-582 -583 0
127 582 583 0
c gate 584 -572 583 0
-572 -584 0
583 -584 0
572 -583 584 0
c gate 585 -562 -584 0
-562 -585 0
-584 -585 0
562 584 585 0
c gate 586 -130 -585 0
-130 -586 0
-585 -586 0
130 585 586 0
c gate 587 129 -586 0
129 -587 0
-586 -587 0
-129 586 587 0
c gate 588 -540 587 0
-540 -588 0
587 -588 0
540 -587 588 0
c gate 589 494 588 0
494 -589 0
588 -589 0
-494 -588 589 0
c gate 590 -399 -589 0
-399 -590 0
-589 -590 0
399 589 590 0
c gate 591 -398 590 0
-398 -591 0
590 -591 0
398 -590 591 0
c gate 592 -226 591 0
-226 -592 0
591 -592 0
226 -591 592 0
c gate 593 -88 -126 0
-88 -593 0
-126 -593 0
88 126 593 0
c gate 594 -86 126 0
-86 -594 0
126 -594 0
86 -126 594 0
c gate 595 125 -594 0
125 -595 0
-594 -595 0
-125 594 595 0
c gate 596 -593 595 0
-593 -596 0
595 -596 0
593 -595 596 0
c gate 597 -125 239 0
-125 -597 0
239 -597 0
125 -239 597 0
c gate 598 128 -597 0
128 -598 0
-597 -598 0
-128 597 598 0
c gate 599 -596 598 0
-596 -599 0
598 -599 0
596 -598 599 0
c gate 600 -96 -126 0
-96 -600 0
-126 -600 0
96 126 600 0
c gate 601 -94 126 0
-94 -601 0
126 -601 0
94 -126 601 0
c gate 602 125 -601 0
125 -602 0
-601 -602 0
-125 601 602 0
c gate 603 -600 602 0
-600 -603 0
602 -603 0
600 -602 603 0
c gate 604 -125 229 0
-125 -604 0
229 -604 0
125 -229 604 0
c gate 605 -128 -604 0
-128 -605 0
-604 -605 0
128 604 605 0
c gate 606 -603 605 0
-603 -606 0
605 -606 0
603 -605 606 0
c gate 607 -127 -606 0
-127 -607 0
-606 -607 0
127 606 607 0
c gate 608 -599 607 0
-599 -608 0
607 -608 0
599 -607 608 0
c gate 609 -92 -126 0
-92 -609 0
-126 -609 0
92 126 609 0
c gate 610 -90 126 0
-90 -610 0
126 -610 0
90 -126 610 0
c gate 611 125 -610 0
125 -611 0
-610 -611 0
-125 610 611 0
c gate 612 -609 611 0
-609 -612 0
611 -612 0
609 -611 612 0
c gate 613 -125 251 0
-125 -613 0
251 -613 0
125 -251 613 0
c gate 614 -128 -613 0
-128 -614 0
-613 -614 0
128 613 614 0
c gate 615 -612 614 0
-612 -615 0
614 -615 0
612 -614 615 0
c gate 616 -83 126 0
-83 -616 0
126 -616 0
83 -126 616 0
c gate 617 -85 -126 0
-85 -617 0
-126 -617 0
85 126 617 0
c gate 618 -125 -617 0
-125 -618 0
-617 -618 0
125 617 618 0
c gate 619 -616 618 0
-616 -619 0
618 -619 0
616 -618 619 0
c gate 620 -82 126 0
-82 -620 0
126 -620 0
82 -126 620 0
c gate 621 -84 -126 0
-84 -621 0
-126 -621 0
84 126 621 0
c gate 622 125 -621 0
125 -622 0
-621 -622 0
-125 621 622 0
c gate 623 -620 622 0
-620 -623 0
622 -623 0
620 -622 623 0
c gate 624 128 -623 0
128 -624 0
-623 -624 0
-128 623 624 0
c gate 625 -619 624 0
-619 -625 0
624 -625 0
619 -624 625 0
c gate 626 127 -625 0
127 -626 0
-625 -626 0
-127 625 626 0
c gate 627 -615 626 0
-615 -627 0
626 -627 0
615 -626 627 0
c gate 628 -608 -627 0
-608 -628 0
-627 -628 0
608 627 628 0
c gate 629 130 -628 0
130 -629 0
-628 -629 0
-130 628 629 0
c gate 630 -118 -126 0
-118 -630 0
-126 -630 0
118 126 630 0
c gate 631 -116 126 0
-116 -631 0
126 -631 0
116 -126 631 0
c gate 632 125 -631 0
125 -632 0
-631 -632 0
-125 631 632 0
c gate 633 -630 632 0
-630 -633 0
632 -633 0
630 -632 633 0
c gate 634 -125 275 0
-125 -634 0
275 -634 0
125 -275 634 0
c gate 635 128 -634 0
128 -635 0
-634 -635 0
-128 634 635 0
c gate 636 -633 635 0
-633 -636 0
635 -636 0
633 -635 636 0
c gate 637 -2 -126 0
-2 -637 0
-126 -637 0
2 126 637 0
c gate 638 -124 126 0
-124 -638 0
126 -638 0
124 -126 638 0
c gate 639 125 -638 0
125 -639 0
-638 -639 0
-125 638 639 0
c gate 640 -637 639 0
-637 -640 0
639 -640 0
637 -639 640 0
c gate 641 -125 285 0
-125 -641 0
285 -641 0
125 -285 641 0
c gate 642 -128 -641 0
-128 -642 0
-641 -642 0
128 641 642 0
c gate 643 -640 642 0
-640 -643 0
642 -643 0
640 -642 643 0
c gate 644 -127 -643 0
-127 -644 0
-643 -644 0
127 643 644 0
c gate 645 -636 644 0
-636 -645 0
644 -645 0
636 -644 645 0
c gate 646 -122 -126 0
-122 -646 0
-126 -646 0
122 126 646 0
c gate 647 -120 126 0
-120 -647 0
126 -647 0
120 -126 647 0
c gate 648 125 -647 0
125 -648 0
-647 -648 0
-125 647 648 0
c gate 649 -646 648 0
-646 -649 0
648 -649 0
646 -648 649 0
c gate 650 -125 297 0
-125 -650 0
297 -650 0
125 -297 650 0
c gate 651 -128 -650 0
-128 -651 0
-650 -651 0
128 650 651 0
c gate 652 -649 651 0
-649 -652 0
651 -652 0
649 -651 652 0
c gate 653 -113 126 0
-113 -653 0
126 -653 0
113 -126 653 0
c gate 654 -115 -126 0
-115 -654 0
-126 -654 0
115 126 654 0
c gate 655 -125 -654 0
-125 -655 0
-654 -655 0
125 654 655 0
c gate 656 -653 655 0
-653 -656 0
655 -656 0
653 -655 656 0
c gate 657 -112 126 0
-112 -657 0
126 -657 0
112 -126 657 0
c gate 658 -114 -126 0
-114 -658 0
-126 -658 0
114 126 658 0
c gate 659 125 -658 0
125 -659 0
-658 -659 0
-125 658 659 0
c gate 660 -657 659 0
-657 -660 0
659 -660 0
657 -659 660 0
c gate 661 128 -660 0
128 -661 0
-660 -661 0
-128 660 661 0
c gate 662 -656 661 0
-656 -662 0
661 -662 0
656 -661 662 0
c gate 663 127 -662 0
127 -663 0
-662 -663 0
-127 662 663 0
c gate 664 -652 663 0
-652 -664 0
663 -664 0
652 -663 664 0
c gate 665 -645 -664 0
-645 -665 0
-664 -665 0
645 664 665 0
c gate 666 -130 -665 0
-130 -666 0
-665 -666 0
130 665 666 0
c gate 667 129 -666 0
129 -667 0
-666 -667 0
-129 666 667 0
c gate 668 -629 667 0
-629 -668 0
667 -668 0
629 -667 668 0
c gate 669 131 668 0
131 -669 0
668 -669 0
-131 -668 669 0
c gate 670 125 428 0
125 -670 0
428 -670 0
-125 -428 670 0
c gate 671 -125 362 0
-125 -671 0
362 -671 0
125 -362 671 0
c gate 672 -128 -671 0
-128 -672 0
-671 -672 0
128 671 672 0
c gate 673 -670 672 0
-670 -673 0
672 -673 0
670 -672 673 0
c gate 674 125 569 0
125 -674 0
569 -674 0
-125 -569 674 0
c gate 675 -125 352 0
-125 -675 0
352 -675 0
125 -352 675 0
c gate 676 128 -675 0
128 -676 0
-675 -676 0
-128 675 676 0
c gate 677 -674 676 0
-674 -677 0
676 -677 0
674 -676 677 0
c gate 678 -673 -677 0
-673 -678 0
-677 -678 0
673 677 678 0
c gate 679 127 -678 0
127 -679 0
-678 -679 0
-127 678 679 0
c gate 680 125 406 0
125 -680 0
406 -680 0
-125 -406 680 0
c gate 681 -125 384 0
-125 -681 0
384 -681 0
125 -384 681 0
c gate 682 128 -681 0
128 -682 0
-681 -682 0
-128 681 682 0
c gate 683 -680 682 0
-680 -683 0
682 -683 0
680 -682 683 0
c gate 684 125 416 0
125 -684 0
416 -684 0
-125 -416 684 0
c gate 685 -125 374 0
-125 -685 0
374 -685 0
125 -374 685 0
c gate 686 -128 -685 0
-128 -686 0
-685 -686 0
128 685 686 0
c gate 687 -684 686 0
-684 -687 0
686 -687 0
684 -686 687 0
c gate 688 -683 -687 0
-683 -688 0
-687 -688 0
683 687 688 0
c gate 689 -127 -688 0
-127 -689 0
-688 -689 0
127 688 689 0
c gate 690 130 -689 0
130 -690 0
-689 -690 0
-130 689 690 0
c gate 691 -679 690 0
-679 -691 0
690 -691 0
679 -690 691 0
c gate 692 125 265 0
125 -692 0
265 -692 0
-125 -265 692 0
c gate 693 -103 -126 0
-103 -693 0
-126 -693 0
103 126 693 0
c gate 694 -101 126 0
-101 -694 0
126 -694 0
101 -126 694 0
c gate 695 -125 -694 0
-125 -695 0
-694 -695 0
125 694 695 0
c gate 696 -693 695 0
-693 -696 0
695 -696 0
693 -695 696 0
c gate 697 128 -696 0
128 -697 0
-696 -697 0
-128 696 697 0
c gate 698 -692 697 0
-692 -698 0
697 -698 0
692 -697 698 0
c gate 699 -109 126 0
-109 -699 0
126 -699 0
109 -126 699 0
c gate 700 -111 -126 0
-111 -700 0
-126 -700 0
111 126 700 0
c gate 701 -125 -700 0
-125 -701 0
-700 -701 0
125 700 701 0
c gate 702 -699 701 0
-699 -702 0
701 -702 0
699 -701 702 0
c gate 703 -108 126 0
-108 -703 0
126 -703 0
108 -126 703 0
c gate 704 -110 -126 0
-110 -704 0
-126 -704 0
110 126 704 0
c gate 705 125 -704 0
125 -705 0
-704 -705 0
-125 704 705 0
c gate 706 -703 705 0
-703 -706 0
705 -706 0
703 -705 706 0
c gate 707 -128 -706 0
-128 -707 0
-706 -707 0
128 706 707 0
c gate 708 -702 707 0
-702 -708 0
707 -708 0
702 -707 708 0
c gate 709 -127 -708 0
-127 -709 0
-708 -709 0
127 708 709 0
c gate 710 -698 709 0
-698 -710 0
709 -710 0
698 -709 710 0
c gate 711 125 233 0
125 -711 0
233 -711 0
-125 -233 711 0
c gate 712 -99 -126 0
-99 -712 0
-126 -712 0
99 126 712 0
c gate 713 -97 126 0
-97 -713 0
126 -713 0
97 -126 713 0
c gate 714 -125 -713 0
-125 -714 0
-713 -714 0
125 713 714 0
c gate 715 -712 714 0
-712 -715 0
714 -715 0
712 -714 715 0
c gate 716 128 -715 0
128 -716 0
-715 -716 0
-128 715 716 0
c gate 717 -711 716 0
-711 -717 0
716 -717 0
711 -716 717 0
c gate 718 -105 126 0
-105 -718 0
126 -718 0
105 -126 718 0
c gate 719 -107 -126 0
-107 -719 0
-126 -719 0
107 126 719 0
c gate 720 -125 -719 0
-125 -720 0
-719 -720 0
125 719 720 0
c gate 721 -718 720 0
-718 -721 0
720 -721 0
718 -720 721 0
c gate 722 -104 126 0
-104 -722 0
126 -722 0
104 -126 722 0
c gate 723 -106 -126 0
-106 -723 0
-126 -723 0
106 126 723 0
c gate 724 125 -723 0
125 -724 0
-723 -724 0
-125 723 724 0
c gate 725 -722 724 0
-722 -725 0
724 -725 0
722 -724 725 0
c gate 726 -128 -725 0
-128 -726 0
-725 -726 0
128 725 726 0
c gate 727 -721 726 0
-721 -727 0
726 -727 0
721 -726 727 0
c gate 728 127 -727 0
127 -728 0
-727 -728 0
-127 727 728 0
c gate 729 -717 728 0
-717 -729 0
728 -729 0
717 -728 729 0
c gate 730 -710 -729 0
-710 -730 0
-729 -730 0
710 729 730 0
c gate 731 -130 -730 0
-130 -731 0
-730 -731 0
130 730 731 0
c gate 732 129 -731 0
129 -732 0
-731 -732 0
-129 731 732 0
c gate 733 -691 732 0
-691 -733 0
732 -733 0
691 -732 733 0
c gate 734 131 733 0
131 -734 0
733 -734 0
-131 -733 734 0
c gate 735 -669 -734 0
-669 -735 0
-734 -735 0
669 734 735 0
c gate 736 -592 735 0
-592 -736 0
735 -736 0
592 -735 736 0
c gate 737 -321 736 0
-321 -737 0
736 -737 0
321 -736 737 0
c gate 738 -494 588 0
-494 -738 0
588 -738 0
494 -588 738 0
c gate 739 -131 397 0
-131 -739 0
397 -739 0
131 -397 739 0
c gate 740 -738 -739 0
-738 -740 0
-739 -740 0
738 739 740 0
c gate 741 -737 740 0
-737 -741 0
740 -741 0
737 -740 741 0
c gate 742 -131 668 0
-131 -742 0
668 -742 0
131 -668 742 0
c gate 743 -131 733 0
-131 -743 0
733 -743 0
131 -733 743 0
c gate 744 -131 320 0
-131 -744 0
320 -744 0
131 -320 744 0
c gate 745 -743 -744 0
-743 -745 0
-744 -745 0
743 744 745 0
c gate 746 -742 745 0
-742 -746 0
745 -746 0
742 -745 746 0
c gate 747 -741 -746 0
-741 -747 0
-746 -747 0
741 746 747 0
c gate 748 -591 741 0
-591 -748 0
741 -748 0
591 -741 748 0
c gate 749 -734 748 0
-734 -749 0
748 -749 0
734 -748 749 0
c gate 750 -747 -749 0
-747 -750 0
-749 -750 0
747 749 750 0
c gate 751 -226 750 0
-226 -751 0
750 -751 0
226 -750 751 0
c gate 752 226 -750 0
226 -752 0
-750 -752 0
-226 750 752 0
c gate 753 -751 -752 0
-751 -753 0
-752 -753 0
751 752 753 0
c PO
753 0
